p edge 779
e 0 54
e 0 55
e 0 234
e 1 340
e 1 341
e 1 343
e 1 527
e 1 709
e 1 758
e 2 3
e 2 274
e 2 709
e 2 744
e 2 755
e 4 35
e 4 71
e 4 439
e 5 6
e 5 7
e 5 209
e 5 256
e 5 685
e 5 694
e 6 209
e 6 685
e 6 691
e 7 211
e 7 256
e 7 748
e 8 191
e 8 192
e 8 216
e 8 719
e 9 10
e 9 151
e 9 735
e 9 775
e 10 218
e 10 520
e 10 775
e 11 12
e 11 212
e 11 453
e 11 737
e 12 212
e 12 737
e 13 173
e 13 189
e 13 267
e 13 303
e 14 123
e 14 189
e 14 267
e 14 303
e 14 451
e 14 452
e 14 474
e 15 313
e 15 316
e 15 455
e 15 657
e 15 665
e 15 668
e 16 321
e 16 442
e 16 516
e 16 632
e 17 253
e 17 322
e 17 430
e 18 193
e 18 196
e 18 201
e 18 679
e 18 682
e 18 738
e 19 264
e 19 574
e 19 580
e 19 581
e 19 585
e 19 711
e 20 21
e 20 22
e 20 23
e 20 24
e 20 37
e 20 49
e 20 223
e 20 270
e 20 319
e 20 366
e 20 437
e 20 438
e 20 557
e 20 597
e 20 600
e 21 49
e 21 50
e 21 223
e 21 366
e 21 557
e 22 23
e 22 220
e 22 221
e 23 220
e 23 556
e 23 557
e 24 50
e 24 221
e 24 222
e 24 336
e 24 438
e 24 709
e 24 746
e 25 26
e 25 27
e 25 429
e 26 426
e 26 428
e 27 273
e 27 274
e 27 280
e 27 426
e 27 429
e 27 753
e 28 30
e 28 31
e 28 243
e 28 407
e 28 603
e 29 226
e 29 230
e 29 269
e 29 743
e 30 31
e 30 33
e 30 243
e 30 244
e 30 406
e 30 407
e 30 603
e 30 762
e 30 764
e 31 32
e 31 224
e 31 242
e 31 243
e 31 244
e 31 405
e 31 406
e 31 407
e 31 762
e 32 242
e 33 603
e 33 604
e 34 253
e 34 318
e 34 430
e 34 741
e 34 774
e 35 71
e 35 76
e 35 121
e 35 311
e 35 357
e 35 439
e 35 469
e 35 717
e 36 119
e 36 361
e 36 651
e 36 738
e 37 366
e 37 410
e 37 412
e 37 596
e 37 597
e 37 598
e 37 599
e 37 600
e 38 39
e 38 483
e 38 519
e 39 483
e 39 506
e 39 508
e 39 519
e 39 720
e 40 41
e 40 77
e 40 78
e 40 79
e 40 629
e 41 78
e 41 83
e 41 638
e 42 43
e 42 173
e 42 441
e 42 520
e 42 687
e 43 173
e 43 687
e 43 695
e 44 45
e 44 369
e 44 372
e 44 732
e 45 369
e 45 548
e 45 657
e 45 665
e 45 668
e 46 72
e 46 592
e 46 595
e 46 716
e 47 48
e 47 269
e 47 423
e 47 426
e 47 743
e 47 762
e 48 224
e 48 743
e 48 762
e 49 223
e 50 51
e 50 222
e 50 556
e 50 596
e 50 602
e 50 745
e 50 746
e 51 222
e 51 556
e 52 122
e 52 309
e 52 310
e 52 362
e 52 363
e 52 573
e 52 591
e 53 153
e 53 170
e 53 204
e 53 205
e 53 228
e 53 433
e 53 755
e 54 55
e 54 70
e 54 228
e 54 232
e 54 233
e 54 234
e 54 758
e 55 70
e 55 234
e 55 528
e 55 768
e 55 769
e 56 57
e 56 60
e 56 61
e 56 263
e 56 265
e 57 58
e 57 60
e 57 729
e 58 595
e 58 610
e 58 729
e 59 63
e 59 595
e 59 610
e 59 623
e 60 61
e 60 610
e 60 627
e 61 264
e 61 265
e 61 711
e 62 64
e 62 75
e 62 455
e 62 751
e 63 558
e 63 592
e 63 594
e 63 595
e 64 455
e 64 475
e 64 500
e 64 776
e 65 442
e 65 631
e 65 632
e 65 662
e 66 67
e 66 201
e 66 215
e 66 547
e 67 201
e 67 547
e 67 549
e 68 457
e 68 593
e 68 594
e 68 664
e 69 100
e 69 357
e 69 593
e 69 617
e 69 626
e 70 228
e 70 295
e 70 297
e 70 306
e 70 531
e 71 449
e 71 466
e 71 499
e 71 555
e 71 640
e 71 678
e 71 689
e 72 595
e 72 716
e 72 717
e 73 74
e 73 193
e 73 201
e 73 549
e 73 751
e 74 75
e 74 193
e 74 449
e 74 751
e 75 449
e 75 475
e 76 121
e 76 311
e 77 78
e 77 79
e 77 80
e 77 323
e 77 561
e 78 323
e 78 567
e 78 638
e 79 207
e 79 561
e 79 575
e 80 323
e 80 327
e 80 561
e 80 589
e 81 323
e 81 327
e 81 567
e 81 570
e 81 571
e 82 83
e 82 590
e 82 629
e 82 731
e 83 629
e 83 635
e 84 85
e 84 86
e 84 174
e 84 247
e 84 616
e 84 705
e 85 86
e 85 706
e 85 712
e 86 625
e 86 674
e 87 96
e 87 621
e 87 697
e 87 707
e 88 93
e 88 128
e 88 175
e 88 176
e 88 490
e 88 730
e 89 150
e 89 249
e 89 390
e 89 494
e 90 149
e 90 249
e 90 390
e 90 420
e 91 92
e 91 133
e 91 135
e 91 419
e 92 104
e 92 148
e 92 419
e 93 103
e 93 139
e 93 163
e 93 175
e 93 176
e 93 246
e 94 95
e 94 290
e 94 482
e 94 506
e 94 508
e 95 101
e 95 187
e 95 482
e 95 508
e 95 519
e 96 409
e 96 621
e 96 707
e 97 142
e 97 185
e 97 444
e 97 496
e 98 140
e 98 293
e 98 294
e 98 563
e 99 483
e 99 493
e 99 511
e 99 722
e 100 457
e 100 458
e 100 569
e 100 570
e 101 187
e 101 483
e 101 519
e 101 718
e 102 108
e 102 128
e 102 612
e 102 718
e 102 739
e 103 246
e 103 480
e 103 708
e 104 132
e 104 133
e 104 136
e 105 418
e 105 491
e 105 494
e 105 504
e 105 513
e 106 107
e 106 139
e 106 482
e 106 523
e 107 139
e 107 163
e 107 523
e 107 718
e 108 128
e 108 163
e 108 718
e 108 730
e 109 120
e 109 130
e 109 569
e 109 659
e 109 666
e 110 113
e 110 125
e 110 639
e 110 648
e 110 649
e 110 675
e 111 112
e 111 329
e 111 367
e 111 637
e 111 696
e 112 367
e 112 409
e 112 707
e 113 639
e 113 675
e 114 120
e 114 639
e 114 666
e 114 677
e 115 131
e 115 134
e 115 327
e 115 589
e 115 749
e 116 377
e 116 379
e 116 381
e 116 382
e 116 761
e 117 169
e 117 171
e 117 206
e 117 235
e 117 346
e 117 380
e 117 432
e 117 530
e 118 178
e 118 339
e 118 388
e 118 766
e 118 767
e 119 334
e 119 335
e 119 361
e 119 642
e 119 645
e 119 685
e 119 738
e 120 129
e 120 130
e 120 689
e 121 311
e 121 357
e 121 617
e 122 362
e 122 363
e 122 364
e 122 576
e 123 255
e 123 267
e 123 368
e 124 370
e 124 371
e 124 372
e 124 470
e 125 126
e 125 639
e 125 647
e 125 650
e 125 666
e 126 647
e 126 650
e 126 667
e 127 188
e 127 213
e 127 214
e 127 462
e 127 474
e 127 728
e 128 490
e 128 494
e 128 517
e 128 730
e 128 739
e 129 130
e 129 640
e 129 689
e 130 311
e 130 569
e 130 640
e 131 134
e 131 647
e 131 667
e 132 133
e 132 376
e 132 480
e 133 135
e 133 448
e 133 491
e 134 335
e 134 588
e 134 609
e 134 644
e 134 733
e 135 418
e 135 419
e 135 491
e 135 504
e 136 148
e 136 376
e 136 750
e 137 150
e 137 190
e 137 494
e 138 151
e 138 450
e 138 479
e 138 488
e 138 777
e 139 163
e 139 246
e 139 482
e 140 141
e 140 184
e 140 502
e 140 559
e 141 184
e 141 294
e 141 485
e 141 572
e 142 184
e 142 185
e 142 496
e 143 161
e 143 162
e 143 177
e 143 347
e 143 386
e 143 387
e 143 530
e 143 755
e 143 757
e 144 160
e 144 227
e 144 295
e 144 754
e 145 194
e 145 308
e 145 319
e 145 378
e 146 296
e 146 297
e 146 306
e 146 531
e 146 535
e 147 148
e 147 245
e 147 317
e 147 419
e 147 421
e 148 317
e 148 750
e 149 390
e 149 392
e 149 420
e 150 390
e 150 396
e 150 616
e 151 450
e 151 486
e 151 520
e 151 735
e 152 168
e 152 301
e 152 348
e 152 431
e 152 433
e 152 434
e 153 168
e 153 205
e 153 301
e 153 344
e 153 433
e 153 434
e 153 537
e 154 155
e 154 186
e 154 291
e 154 472
e 154 559
e 155 472
e 155 720
e 155 721
e 156 440
e 156 447
e 156 521
e 156 726
e 157 172
e 157 477
e 157 492
e 157 507
e 157 726
e 158 304
e 158 305
e 158 381
e 158 382
e 159 206
e 159 229
e 159 289
e 159 339
e 159 349
e 159 354
e 160 229
e 160 289
e 160 295
e 161 179
e 161 180
e 161 386
e 161 530
e 162 177
e 162 180
e 162 386
e 163 718
e 163 730
e 164 246
e 164 248
e 164 290
e 164 482
e 165 166
e 165 182
e 165 331
e 165 394
e 165 401
e 166 394
e 166 401
e 166 403
e 166 408
e 167 304
e 167 305
e 167 340
e 167 341
e 167 343
e 167 355
e 167 527
e 168 301
e 168 434
e 169 179
e 169 385
e 169 530
e 169 757
e 170 228
e 170 231
e 171 197
e 171 198
e 171 235
e 171 384
e 171 432
e 172 477
e 172 726
e 172 734
e 173 188
e 173 267
e 173 441
e 173 497
e 173 727
e 174 247
e 174 703
e 174 705
e 175 176
e 175 448
e 175 480
e 175 490
e 175 513
e 175 518
e 177 179
e 177 180
e 177 757
e 178 339
e 178 347
e 178 349
e 178 387
e 179 180
e 179 530
e 179 757
e 180 386
e 181 387
e 181 388
e 182 268
e 182 331
e 182 394
e 183 293
e 183 331
e 183 414
e 183 573
e 184 185
e 184 484
e 184 495
e 185 292
e 185 509
e 186 250
e 186 397
e 186 472
e 186 505
e 187 482
e 187 718
e 188 189
e 188 728
e 189 303
e 189 452
e 189 474
e 190 191
e 190 396
e 190 778
e 191 192
e 191 450
e 191 719
e 192 450
e 192 735
e 193 201
e 193 449
e 193 677
e 193 678
e 194 319
e 194 342
e 194 437
e 195 197
e 195 236
e 195 435
e 195 436
e 195 562
e 196 613
e 196 660
e 196 682
e 196 738
e 197 198
e 197 235
e 197 236
e 198 384
e 198 436
e 199 200
e 199 359
e 199 360
e 199 565
e 199 643
e 199 691
e 200 565
e 200 692
e 200 715
e 201 215
e 201 254
e 201 324
e 201 549
e 202 255
e 202 368
e 202 622
e 202 680
e 203 215
e 203 547
e 203 653
e 203 673
e 203 686
e 204 205
e 204 231
e 204 240
e 204 389
e 205 389
e 206 235
e 206 346
e 206 354
e 206 771
e 206 772
e 207 332
e 207 575
e 207 576
e 207 577
e 207 629
e 208 315
e 208 445
e 208 468
e 208 471
e 209 694
e 209 715
e 210 211
e 210 256
e 210 695
e 210 748
e 211 748
e 212 368
e 212 468
e 212 473
e 212 737
e 213 214
e 213 302
e 213 462
e 213 510
e 214 451
e 214 474
e 214 487
e 214 510
e 215 254
e 215 255
e 215 324
e 215 686
e 216 257
e 216 463
e 216 719
e 216 735
e 216 775
e 217 219
e 217 259
e 217 260
e 217 463
e 217 615
e 217 701
e 217 775
e 218 219
e 218 262
e 218 520
e 218 775
e 219 262
e 219 701
e 219 775
e 220 221
e 220 222
e 220 556
e 221 222
e 223 557
e 224 225
e 224 404
e 224 407
e 224 743
e 224 762
e 225 226
e 225 269
e 225 743
e 225 755
e 226 230
e 226 269
e 227 289
e 227 339
e 227 766
e 228 231
e 228 295
e 228 298
e 228 300
e 228 526
e 228 529
e 228 754
e 228 755
e 228 758
e 229 289
e 229 295
e 229 354
e 230 743
e 231 241
e 232 233
e 232 758
e 232 759
e 233 234
e 233 759
e 234 338
e 234 381
e 234 769
e 235 236
e 235 771
e 236 524
e 236 771
e 237 239
e 237 298
e 237 299
e 237 766
e 238 239
e 238 240
e 238 241
e 238 389
e 238 766
e 238 767
e 239 241
e 239 298
e 239 766
e 240 241
e 240 389
e 241 298
e 241 529
e 242 405
e 242 406
e 243 405
e 243 406
e 244 762
e 245 317
e 245 391
e 245 415
e 245 421
e 246 248
e 247 392
e 247 415
e 247 697
e 248 397
e 248 399
e 248 614
e 248 708
e 249 418
e 249 494
e 250 402
e 250 489
e 250 501
e 250 559
e 250 614
e 251 252
e 251 607
e 251 611
e 252 607
e 252 611
e 253 322
e 253 741
e 254 255
e 254 267
e 254 324
e 254 738
e 254 748
e 255 680
e 255 681
e 255 686
e 256 688
e 257 258
e 257 463
e 257 624
e 258 259
e 258 463
e 258 742
e 259 260
e 259 674
e 260 459
e 260 476
e 260 674
e 261 619
e 262 520
e 262 690
e 262 700
e 263 729
e 264 265
e 264 446
e 265 266
e 265 618
e 265 729
e 266 446
e 266 618
e 267 303
e 267 695
e 267 748
e 268 328
e 268 331
e 268 409
e 268 560
e 269 426
e 269 429
e 269 743
e 269 755
e 270 271
e 270 319
e 271 598
e 271 600
e 272 540
e 272 541
e 272 542
e 272 544
e 272 545
e 272 546
e 272 620
e 272 739
e 273 274
e 273 275
e 273 276
e 273 280
e 273 284
e 274 276
e 274 277
e 274 285
e 274 286
e 274 287
e 274 429
e 274 709
e 274 744
e 275 276
e 275 284
e 276 278
e 276 284
e 276 709
e 277 286
e 277 744
e 278 279
e 278 284
e 278 709
e 278 745
e 278 746
e 279 709
e 279 746
e 280 281
e 280 282
e 280 283
e 280 284
e 280 602
e 280 745
e 280 753
e 281 282
e 281 283
e 281 413
e 281 601
e 281 602
e 282 283
e 282 601
e 282 753
e 284 745
e 285 286
e 285 287
e 285 744
e 286 287
e 286 744
e 288 424
e 288 425
e 288 540
e 288 612
e 288 774
e 289 339
e 290 397
e 290 505
e 290 506
e 291 495
e 291 502
e 291 559
e 291 721
e 292 495
e 292 509
e 292 721
e 293 294
e 293 331
e 293 563
e 294 573
e 294 722
e 295 296
e 295 297
e 295 353
e 295 354
e 296 532
e 297 531
e 298 299
e 298 300
e 298 526
e 299 300
e 299 754
e 300 754
e 301 433
e 302 462
e 302 510
e 302 736
e 304 337
e 304 345
e 304 355
e 305 382
e 305 383
e 306 531
e 306 535
e 306 768
e 307 344
e 307 389
e 307 537
e 307 767
e 308 342
e 308 378
e 309 310
e 309 582
e 309 583
e 309 591
e 309 608
e 309 722
e 310 722
e 311 617
e 311 626
e 311 640
e 312 313
e 312 442
e 312 478
e 312 521
e 312 631
e 313 467
e 313 478
e 314 325
e 314 440
e 314 671
e 314 726
e 315 368
e 315 371
e 315 465
e 315 468
e 315 471
e 315 498
e 315 622
e 315 698
e 316 478
e 316 668
e 316 726
e 316 732
e 317 403
e 318 741
e 318 774
e 319 378
e 319 437
e 320 325
e 320 632
e 320 633
e 320 634
e 320 661
e 321 439
e 321 442
e 321 516
e 322 430
e 322 741
e 323 327
e 323 567
e 325 516
e 325 607
e 325 619
e 325 634
e 325 641
e 325 661
e 325 723
e 325 726
e 326 333
e 326 579
e 326 627
e 327 589
e 327 659
e 327 749
e 328 330
e 328 331
e 328 560
e 329 565
e 329 630
e 329 637
e 330 331
e 330 551
e 330 554
e 331 402
e 331 414
e 331 489
e 331 501
e 331 554
e 331 563
e 332 575
e 332 576
e 332 605
e 333 579
e 333 627
e 333 635
e 333 731
e 334 358
e 334 359
e 334 642
e 334 685
e 335 587
e 335 642
e 335 644
e 335 733
e 336 340
e 336 383
e 336 438
e 336 709
e 337 338
e 337 345
e 337 381
e 338 345
e 338 381
e 338 759
e 339 766
e 340 343
e 340 383
e 340 709
e 341 345
e 341 355
e 341 527
e 341 758
e 342 378
e 342 437
e 343 527
e 344 389
e 344 537
e 345 355
e 345 758
e 345 759
e 346 347
e 346 349
e 346 530
e 347 349
e 347 387
e 347 530
e 348 431
e 348 767
e 350 380
e 350 384
e 350 432
e 351 377
e 351 525
e 351 528
e 351 535
e 351 536
e 351 768
e 352 356
e 352 533
e 352 562
e 352 756
e 352 770
e 353 354
e 353 532
e 353 533
e 353 772
e 354 772
e 356 532
e 356 534
e 356 756
e 357 716
e 357 717
e 358 359
e 358 685
e 358 710
e 359 360
e 359 642
e 359 663
e 359 710
e 360 643
e 360 663
e 361 651
e 362 573
e 362 576
e 363 364
e 363 591
e 364 576
e 364 590
e 364 591
e 365 410
e 365 411
e 365 413
e 365 416
e 365 417
e 366 596
e 366 597
e 367 409
e 367 560
e 368 451
e 368 453
e 368 468
e 368 622
e 369 372
e 369 653
e 369 656
e 370 372
e 370 656
e 370 673
e 370 699
e 371 470
e 371 498
e 371 698
e 371 699
e 372 724
e 372 725
e 373 459
e 373 476
e 373 692
e 373 713
e 373 714
e 374 375
e 374 687
e 374 702
e 374 714
e 375 688
e 375 693
e 375 694
e 376 398
e 376 708
e 377 525
e 377 534
e 377 535
e 377 536
e 377 756
e 377 761
e 377 769
e 378 379
e 378 437
e 378 438
e 379 380
e 379 382
e 379 383
e 379 438
e 379 761
e 380 384
e 380 432
e 380 562
e 380 761
e 381 382
e 381 769
e 382 383
e 383 438
e 384 432
e 384 435
e 384 436
e 385 755
e 385 757
e 387 388
e 387 755
e 387 767
e 388 767
e 389 767
e 390 616
e 391 393
e 391 395
e 391 403
e 392 415
e 392 421
e 392 616
e 393 394
e 393 403
e 393 621
e 394 409
e 395 415
e 395 621
e 395 697
e 396 616
e 396 624
e 396 625
e 396 719
e 397 614
e 398 399
e 398 708
e 398 750
e 399 400
e 399 401
e 399 614
e 399 708
e 400 401
e 400 403
e 400 408
e 400 750
e 401 402
e 401 408
e 402 501
e 402 614
e 403 408
e 403 750
e 404 407
e 404 764
e 405 406
e 407 603
e 407 764
e 409 621
e 410 411
e 410 412
e 410 413
e 410 416
e 410 599
e 411 412
e 411 413
e 411 602
e 412 596
e 412 602
e 413 416
e 413 417
e 413 601
e 413 602
e 414 554
e 414 573
e 416 417
e 418 419
e 418 420
e 418 494
e 419 420
e 419 421
e 420 421
e 422 538
e 422 539
e 422 542
e 422 545
e 423 424
e 423 426
e 423 676
e 423 753
e 423 762
e 423 763
e 423 773
e 423 774
e 424 425
e 424 676
e 424 774
e 425 539
e 425 540
e 425 676
e 426 427
e 426 428
e 426 429
e 426 753
e 428 429
e 429 744
e 429 755
e 430 612
e 430 741
e 430 774
e 431 433
e 431 755
e 431 767
e 433 755
e 434 537
e 434 767
e 435 436
e 435 562
e 437 438
e 439 442
e 439 466
e 439 469
e 439 516
e 440 447
e 440 670
e 440 726
e 441 450
e 441 479
e 441 488
e 441 497
e 441 520
e 441 727
e 441 777
e 442 466
e 442 467
e 442 475
e 442 500
e 442 631
e 442 776
e 443 510
e 443 542
e 443 628
e 443 739
e 444 481
e 444 496
e 444 509
e 444 512
e 444 515
e 445 456
e 445 471
e 445 492
e 445 724
e 445 726
e 445 737
e 446 454
e 446 522
e 446 580
e 446 608
e 446 612
e 446 618
e 446 619
e 446 717
e 446 729
e 447 521
e 447 631
e 447 669
e 448 480
e 448 491
e 448 513
e 449 475
e 449 499
e 449 678
e 450 462
e 450 479
e 450 494
e 450 510
e 450 727
e 450 728
e 450 735
e 450 739
e 450 778
e 451 453
e 451 737
e 452 474
e 453 737
e 454 483
e 454 493
e 454 514
e 454 608
e 454 612
e 454 722
e 455 467
e 455 550
e 455 652
e 455 655
e 456 477
e 456 492
e 456 503
e 456 507
e 456 724
e 457 458
e 457 570
e 457 578
e 457 593
e 457 664
e 458 570
e 459 476
e 459 615
e 460 465
e 460 622
e 460 680
e 461 487
e 461 510
e 462 728
e 463 775
e 464 561
e 464 575
e 464 587
e 464 588
e 464 589
e 464 605
e 465 622
e 465 680
e 465 683
e 465 684
e 466 475
e 466 499
e 467 776
e 468 473
e 468 737
e 469 516
e 469 717
e 469 723
e 470 471
e 470 498
e 470 724
e 471 498
e 471 724
e 472 505
e 472 506
e 472 720
e 475 499
e 475 500
e 476 712
e 477 503
e 477 507
e 477 734
e 478 521
e 478 726
e 479 777
e 480 708
e 481 483
e 481 496
e 481 511
e 481 515
e 482 523
e 482 718
e 483 493
e 483 512
e 483 515
e 483 519
e 483 612
e 483 718
e 483 720
e 484 485
e 484 496
e 484 511
e 484 722
e 485 572
e 485 722
e 486 488
e 486 520
e 487 510
e 488 777
e 489 501
e 489 563
e 490 517
e 490 518
e 491 504
e 491 513
e 492 507
e 492 726
e 493 514
e 494 513
e 494 517
e 494 518
e 494 739
e 494 778
e 495 502
e 496 511
e 497 727
e 500 776
e 503 724
e 503 725
e 503 726
e 503 734
e 505 506
e 506 508
e 508 519
e 509 512
e 509 720
e 510 628
e 510 726
e 510 736
e 510 737
e 510 739
e 511 722
e 512 515
e 512 720
e 513 518
e 514 722
e 516 661
e 516 723
e 517 518
e 520 687
e 521 631
e 521 726
e 522 580
e 522 608
e 523 718
e 524 533
e 524 562
e 524 771
e 525 528
e 525 536
e 525 769
e 526 529
e 528 768
e 528 769
e 532 533
e 532 534
e 532 535
e 533 562
e 533 771
e 534 535
e 537 767
e 538 543
e 538 544
e 538 545
e 538 546
e 539 540
e 539 543
e 540 543
e 540 612
e 540 620
e 541 543
e 541 544
e 542 545
e 543 544
e 544 546
e 545 546
e 547 548
e 547 653
e 547 654
e 548 549
e 548 550
e 548 652
e 548 653
e 548 654
e 548 655
e 549 550
e 550 652
e 550 751
e 551 552
e 551 554
e 551 560
e 551 605
e 552 553
e 552 560
e 552 568
e 552 605
e 553 586
e 553 587
e 553 605
e 553 642
e 554 605
e 555 640
e 555 689
e 556 557
e 558 567
e 558 578
e 558 623
e 558 664
e 559 563
e 560 568
e 560 637
e 561 575
e 561 589
e 562 760
e 562 761
e 562 770
e 564 580
e 564 583
e 564 584
e 564 608
e 565 566
e 565 704
e 566 568
e 566 586
e 566 637
e 566 643
e 567 571
e 567 638
e 568 586
e 568 637
e 569 570
e 569 626
e 570 571
e 570 659
e 571 578
e 572 722
e 573 576
e 573 605
e 573 722
e 574 579
e 574 585
e 574 591
e 575 605
e 576 577
e 576 605
e 577 590
e 577 629
e 578 664
e 579 590
e 579 711
e 580 581
e 581 582
e 581 584
e 581 585
e 581 591
e 582 583
e 582 584
e 583 584
e 583 608
e 585 591
e 586 642
e 587 588
e 588 589
e 588 733
e 590 591
e 590 731
e 592 594
e 592 716
e 593 594
e 593 716
e 594 664
e 595 717
e 596 602
e 598 599
e 598 600
e 602 745
e 603 604
e 606 672
e 606 740
e 607 611
e 607 619
e 607 628
e 607 726
e 608 722
e 609 644
e 609 646
e 609 647
e 610 636
e 611 628
e 612 619
e 612 620
e 612 718
e 612 739
e 612 741
e 612 774
e 613 660
e 613 738
e 615 701
e 615 714
e 616 625
e 617 626
e 618 729
e 619 628
e 619 717
e 619 723
e 619 741
e 620 739
e 622 680
e 623 636
e 623 638
e 624 625
e 624 719
e 624 742
e 625 742
e 627 636
e 627 711
e 628 726
e 628 740
e 630 696
e 630 704
e 630 706
e 631 662
e 631 669
e 631 670
e 631 671
e 632 633
e 632 661
e 632 662
e 633 634
e 633 662
e 634 641
e 634 662
e 634 671
e 635 636
e 635 638
e 635 731
e 639 679
e 641 671
e 642 643
e 642 663
e 643 663
e 644 645
e 645 646
e 645 651
e 646 647
e 646 651
e 647 649
e 647 658
e 648 649
e 648 651
e 648 658
e 648 660
e 649 658
e 650 659
e 650 666
e 651 658
e 651 738
e 652 655
e 653 654
e 653 656
e 653 673
e 655 657
e 656 673
e 657 665
e 659 666
e 659 667
e 659 749
e 660 675
e 660 738
e 662 671
e 665 668
e 667 749
e 668 732
e 669 670
e 670 671
e 672 740
e 673 683
e 673 684
e 673 686
e 674 712
e 674 742
e 675 679
e 675 682
e 676 753
e 677 678
e 677 679
e 677 689
e 678 689
e 679 682
e 680 681
e 680 683
e 681 683
e 681 686
e 683 684
e 683 686
e 684 698
e 684 699
e 685 710
e 685 748
e 687 688
e 687 690
e 687 702
e 688 694
e 688 695
e 690 700
e 690 702
e 691 710
e 691 715
e 692 693
e 692 704
e 692 714
e 692 747
e 693 714
e 693 747
e 694 747
e 695 748
e 696 703
e 696 705
e 696 707
e 697 703
e 697 707
e 698 699
e 700 701
e 700 702
e 701 714
e 702 714
e 703 705
e 703 707
e 704 706
e 704 713
e 705 706
e 706 712
e 706 713
e 709 746
e 709 755
e 709 758
e 712 713
e 715 747
e 716 717
e 717 723
e 717 729
e 720 721
e 724 725
e 725 726
e 725 732
e 726 732
e 726 734
e 726 737
e 727 728
e 735 775
e 738 748
e 744 755
e 745 746
e 752 753
e 754 766
e 755 757
e 755 758
e 755 767
e 756 760
e 756 761
e 758 759
e 760 761
e 760 770
e 762 763
e 762 764
e 763 764
e 763 765
e 763 773
e 764 765
e 764 773
e 766 767
e 771 772
e 773 774
c k 4
